NAME          
ROWS
 N  OBJ
 L  c1
COLUMNS
    MARKER    'MARKER'                 'INTORG'
    x[1]      c1        638
    x[1]      OBJ       -648
    x[2]      c1        999
    x[2]      OBJ       -978
    x[3]      c1        1002
    x[3]      OBJ       -970
    x[4]      c1        970
    x[4]      OBJ       -956
    x[5]      c1        480
    x[5]      OBJ       -548
    x[6]      c1        20
    x[6]      OBJ       -16
    x[7]      c1        950
    x[7]      OBJ       -853
    x[8]      c1        355
    x[8]      OBJ       -331
    x[9]      c1        390
    x[9]      OBJ       -458
    x[10]     c1        32
    x[10]     OBJ       -123
    x[11]     c1        484
    x[11]     OBJ       -512
    x[12]     c1        897
    x[12]     OBJ       -952
    x[13]     c1        -38
    x[13]     OBJ       -22
    x[14]     c1        28
    x[14]     OBJ       -116
    x[15]     c1        814
    x[15]     OBJ       -913
    x[16]     c1        734
    x[16]     OBJ       -820
    x[17]     c1        676
    x[17]     OBJ       -618
    x[18]     c1        571
    x[18]     OBJ       -527
    x[19]     c1        374
    x[19]     OBJ       -331
    x[20]     c1        394
    x[20]     OBJ       -480
    x[21]     c1        767
    x[21]     OBJ       -851
    x[22]     c1        783
    x[22]     OBJ       -760
    x[23]     c1        345
    x[23]     OBJ       -365
    x[24]     c1        905
    x[24]     OBJ       -868
    x[25]     c1        238
    x[25]     OBJ       -247
    x[26]     c1        299
    x[26]     OBJ       -210
    x[27]     c1        737
    x[27]     OBJ       -778
    x[28]     c1        752
    x[28]     OBJ       -714
    x[29]     c1        300
    x[29]     OBJ       -236
    x[30]     c1        670
    x[30]     OBJ       -755
    x[31]     c1        876
    x[31]     OBJ       -876
    x[32]     c1        160
    x[32]     OBJ       -206
    x[33]     c1        535
    x[33]     OBJ       -561
    x[34]     c1        67
    x[34]     OBJ       -97
    x[35]     c1        885
    x[35]     OBJ       -859
    x[36]     c1        474
    x[36]     OBJ       -435
    x[37]     c1        517
    x[37]     OBJ       -582
    x[38]     c1        792
    x[38]     OBJ       -762
    x[39]     c1        408
    x[39]     OBJ       -472
    x[40]     c1        834
    x[40]     OBJ       -869
    x[41]     c1        638
    x[41]     OBJ       -550
    x[42]     c1        404
    x[42]     OBJ       -386
    x[43]     c1        161
    x[43]     OBJ       -227
    x[44]     c1        114
    x[44]     OBJ       -82
    x[45]     c1        904
    x[45]     OBJ       -890
    x[46]     c1        897
    x[46]     OBJ       -964
    x[47]     c1        274
    x[47]     OBJ       -205
    x[48]     c1        787
    x[48]     OBJ       -765
    x[49]     c1        778
    x[49]     OBJ       -782
    x[50]     c1        325
    x[50]     OBJ       -407
    x[51]     c1        653
    x[51]     OBJ       -701
    x[52]     c1        945
    x[52]     OBJ       -961
    x[53]     c1        407
    x[53]     OBJ       -364
    x[54]     c1        356
    x[54]     OBJ       -293
    x[55]     c1        665
    x[55]     OBJ       -708
    x[56]     c1        437
    x[56]     OBJ       -428
    x[57]     c1        885
    x[57]     OBJ       -927
    x[58]     c1        364
    x[58]     OBJ       -437
    x[59]     c1        1017
    x[59]     OBJ       -994
    x[60]     c1        19
    x[60]     OBJ       -99
    x[61]     c1        627
    x[61]     OBJ       -663
    x[62]     c1        345
    x[62]     OBJ       -383
    x[63]     c1        971
    x[63]     OBJ       -900
    x[64]     c1        245
    x[64]     OBJ       -250
    x[65]     c1        314
    x[65]     OBJ       -344
    x[66]     c1        758
    x[66]     OBJ       -806
    x[67]     c1        102
    x[67]     OBJ       -132
    x[68]     c1        234
    x[68]     OBJ       -323
    x[69]     c1        238
    x[69]     OBJ       -313
    x[70]     c1        981
    x[70]     OBJ       -1000
    x[71]     c1        40
    x[71]     OBJ       -75
    x[72]     c1        264
    x[72]     OBJ       -324
    x[73]     c1        165
    x[73]     OBJ       -238
    x[74]     c1        553
    x[74]     OBJ       -621
    x[75]     c1        922
    x[75]     OBJ       -886
    x[76]     c1        263
    x[76]     OBJ       -255
    x[77]     c1        -23
    x[77]     OBJ       -57
    x[78]     c1        61
    x[78]     OBJ       -41
    x[79]     c1        111
    x[79]     OBJ       -102
    x[80]     c1        533
    x[80]     OBJ       -571
    x[81]     c1        730
    x[81]     OBJ       -636
    x[82]     c1        431
    x[82]     OBJ       -434
    x[83]     c1        676
    x[83]     OBJ       -679
    x[84]     c1        980
    x[84]     OBJ       -926
    x[85]     c1        -63
    x[85]     OBJ       -25
    x[86]     c1        785
    x[86]     OBJ       -788
    x[87]     c1        40
    x[87]     OBJ       -107
    x[88]     c1        359
    x[88]     OBJ       -361
    x[89]     c1        64
    x[89]     OBJ       -3
    x[90]     c1        272
    x[90]     OBJ       -259
    x[91]     c1        173
    x[91]     OBJ       -184
    x[92]     c1        939
    x[92]     OBJ       -918
    x[93]     c1        375
    x[93]     OBJ       -276
    x[94]     c1        595
    x[94]     OBJ       -656
    x[95]     c1        335
    x[95]     OBJ       -346
    x[96]     c1        297
    x[96]     OBJ       -336
    x[97]     c1        278
    x[97]     OBJ       -223
    x[98]     c1        454
    x[98]     OBJ       -388
    x[99]     c1        139
    x[99]     OBJ       -65
    x[100]    c1        871
    x[100]    OBJ       -965
RHS
    rhs       c1        24789
RANGES
BOUNDS
 LO bounds    x[1]      0
 PL bounds    x[1]
 LO bounds    x[2]      0
 PL bounds    x[2]
 LO bounds    x[3]      0
 PL bounds    x[3]
 LO bounds    x[4]      0
 PL bounds    x[4]
 LO bounds    x[5]      0
 PL bounds    x[5]
 LO bounds    x[6]      0
 PL bounds    x[6]
 LO bounds    x[7]      0
 PL bounds    x[7]
 LO bounds    x[8]      0
 PL bounds    x[8]
 LO bounds    x[9]      0
 PL bounds    x[9]
 LO bounds    x[10]     0
 PL bounds    x[10]
 LO bounds    x[11]     0
 PL bounds    x[11]
 LO bounds    x[12]     0
 PL bounds    x[12]
 LO bounds    x[13]     0
 PL bounds    x[13]
 LO bounds    x[14]     0
 PL bounds    x[14]
 LO bounds    x[15]     0
 PL bounds    x[15]
 LO bounds    x[16]     0
 PL bounds    x[16]
 LO bounds    x[17]     0
 PL bounds    x[17]
 LO bounds    x[18]     0
 PL bounds    x[18]
 LO bounds    x[19]     0
 PL bounds    x[19]
 LO bounds    x[20]     0
 PL bounds    x[20]
 LO bounds    x[21]     0
 PL bounds    x[21]
 LO bounds    x[22]     0
 PL bounds    x[22]
 LO bounds    x[23]     0
 PL bounds    x[23]
 LO bounds    x[24]     0
 PL bounds    x[24]
 LO bounds    x[25]     0
 PL bounds    x[25]
 LO bounds    x[26]     0
 PL bounds    x[26]
 LO bounds    x[27]     0
 PL bounds    x[27]
 LO bounds    x[28]     0
 PL bounds    x[28]
 LO bounds    x[29]     0
 PL bounds    x[29]
 LO bounds    x[30]     0
 PL bounds    x[30]
 LO bounds    x[31]     0
 PL bounds    x[31]
 LO bounds    x[32]     0
 PL bounds    x[32]
 LO bounds    x[33]     0
 PL bounds    x[33]
 LO bounds    x[34]     0
 PL bounds    x[34]
 LO bounds    x[35]     0
 PL bounds    x[35]
 LO bounds    x[36]     0
 PL bounds    x[36]
 LO bounds    x[37]     0
 PL bounds    x[37]
 LO bounds    x[38]     0
 PL bounds    x[38]
 LO bounds    x[39]     0
 PL bounds    x[39]
 LO bounds    x[40]     0
 PL bounds    x[40]
 LO bounds    x[41]     0
 PL bounds    x[41]
 LO bounds    x[42]     0
 PL bounds    x[42]
 LO bounds    x[43]     0
 PL bounds    x[43]
 LO bounds    x[44]     0
 PL bounds    x[44]
 LO bounds    x[45]     0
 PL bounds    x[45]
 LO bounds    x[46]     0
 PL bounds    x[46]
 LO bounds    x[47]     0
 PL bounds    x[47]
 LO bounds    x[48]     0
 PL bounds    x[48]
 LO bounds    x[49]     0
 PL bounds    x[49]
 LO bounds    x[50]     0
 PL bounds    x[50]
 LO bounds    x[51]     0
 PL bounds    x[51]
 LO bounds    x[52]     0
 PL bounds    x[52]
 LO bounds    x[53]     0
 PL bounds    x[53]
 LO bounds    x[54]     0
 PL bounds    x[54]
 LO bounds    x[55]     0
 PL bounds    x[55]
 LO bounds    x[56]     0
 PL bounds    x[56]
 LO bounds    x[57]     0
 PL bounds    x[57]
 LO bounds    x[58]     0
 PL bounds    x[58]
 LO bounds    x[59]     0
 PL bounds    x[59]
 LO bounds    x[60]     0
 PL bounds    x[60]
 LO bounds    x[61]     0
 PL bounds    x[61]
 LO bounds    x[62]     0
 PL bounds    x[62]
 LO bounds    x[63]     0
 PL bounds    x[63]
 LO bounds    x[64]     0
 PL bounds    x[64]
 LO bounds    x[65]     0
 PL bounds    x[65]
 LO bounds    x[66]     0
 PL bounds    x[66]
 LO bounds    x[67]     0
 PL bounds    x[67]
 LO bounds    x[68]     0
 PL bounds    x[68]
 LO bounds    x[69]     0
 PL bounds    x[69]
 LO bounds    x[70]     0
 PL bounds    x[70]
 LO bounds    x[71]     0
 PL bounds    x[71]
 LO bounds    x[72]     0
 PL bounds    x[72]
 LO bounds    x[73]     0
 PL bounds    x[73]
 LO bounds    x[74]     0
 PL bounds    x[74]
 LO bounds    x[75]     0
 PL bounds    x[75]
 LO bounds    x[76]     0
 PL bounds    x[76]
 LO bounds    x[77]     0
 PL bounds    x[77]
 LO bounds    x[78]     0
 PL bounds    x[78]
 LO bounds    x[79]     0
 PL bounds    x[79]
 LO bounds    x[80]     0
 PL bounds    x[80]
 LO bounds    x[81]     0
 PL bounds    x[81]
 LO bounds    x[82]     0
 PL bounds    x[82]
 LO bounds    x[83]     0
 PL bounds    x[83]
 LO bounds    x[84]     0
 PL bounds    x[84]
 LO bounds    x[85]     0
 PL bounds    x[85]
 LO bounds    x[86]     0
 PL bounds    x[86]
 LO bounds    x[87]     0
 PL bounds    x[87]
 LO bounds    x[88]     0
 PL bounds    x[88]
 LO bounds    x[89]     0
 PL bounds    x[89]
 LO bounds    x[90]     0
 PL bounds    x[90]
 LO bounds    x[91]     0
 PL bounds    x[91]
 LO bounds    x[92]     0
 PL bounds    x[92]
 LO bounds    x[93]     0
 PL bounds    x[93]
 LO bounds    x[94]     0
 PL bounds    x[94]
 LO bounds    x[95]     0
 PL bounds    x[95]
 LO bounds    x[96]     0
 PL bounds    x[96]
 LO bounds    x[97]     0
 PL bounds    x[97]
 LO bounds    x[98]     0
 PL bounds    x[98]
 LO bounds    x[99]     0
 PL bounds    x[99]
 LO bounds    x[100]    0
 PL bounds    x[100]
ENDATA
